000111011110000001101000011010000000111011110000001101000010010000110101111110100010001111101111000110000100000000000000111100001000110101111110111100011111111011111110101111110111100011111100111111110000100000000000000010100000000110101111110111100011101001110111110101111110111100011111100111111000001000000000000001000000000000110101111110111100011111101111111